benchmarks/VRPTW/TSPTW/ins/n60w40.001.txt
!! n60w40.001    36.13 669


CUST NO.   XCOORD.   YCOORD.    DEMAND   READY TIME   DUE DATE   SERVICE TIME


    1      41.00      43.00       0.00       0.00     685.00       0.00
    2       4.00       1.00       0.00     586.00     629.00       0.00
    3      32.00       8.00       0.00     148.00     159.00       0.00
    4      43.00      45.00       0.00       0.00      11.00       0.00
    5      42.00      17.00       0.00     118.00     156.00       0.00
    6       8.00      45.00       0.00     292.00     332.00       0.00
    7      25.00      32.00       0.00      49.00      80.00       0.00
    8      49.00      46.00       0.00       0.00      41.00       0.00
    9      34.00      18.00       0.00      77.00     108.00       0.00
   10      13.00      38.00       0.00     294.00     297.00       0.00
   11      45.00      12.00       0.00     436.00     455.00       0.00
   12      35.00      40.00       0.00      47.00      73.00       0.00
   13      46.00      16.00       0.00      88.00     159.00       0.00
   14      30.00       1.00       0.00     559.00     567.00       0.00
   15      29.00       7.00       0.00     116.00     184.00       0.00
   16      42.00      30.00       0.00      68.00     136.00       0.00
   17      20.00      16.00       0.00     163.00     180.00       0.00
   18      42.00      37.00       0.00       3.00      55.00       0.00
   19      41.00      43.00       0.00      26.00      41.00       0.00
   20      39.00      28.00       0.00      87.00     111.00       0.00
   21      19.00      33.00       0.00     259.00     313.00       0.00
   22      27.00      19.00       0.00      44.00      95.00       0.00
   23       9.00      22.00       0.00     516.00     536.00       0.00
   24      48.00       4.00       0.00     437.00     491.00       0.00
   25      34.00      27.00       0.00      75.00     109.00       0.00
   26      34.00       8.00       0.00     125.00     150.00       0.00
   27       3.00      43.00       0.00     340.00     382.00       0.00
   28      15.00       7.00       0.00     154.00     207.00       0.00
   29      31.00      15.00       0.00      56.00      92.00       0.00
   30      48.00      34.00       0.00       0.00      47.00       0.00
   31      50.00       1.00       0.00     443.00     480.00       0.00
   32      17.00      13.00       0.00     240.00     282.00       0.00
   33      43.00      47.00       0.00      11.00      59.00       0.00
   34      45.00      46.00       0.00       0.00      29.00       0.00
   35       1.00      40.00       0.00     314.00     358.00       0.00
   36      24.00      28.00       0.00     258.00     269.00       0.00
   37       9.00       1.00       0.00     212.00     233.00       0.00
   38       2.00      30.00       0.00     357.00     397.00       0.00
   39      39.00      41.00       0.00     398.00     447.00       0.00
   40      44.00      19.00       0.00     119.00     137.00       0.00
   41      46.00      48.00       0.00       0.00      18.00       0.00
   42      37.00       0.00       0.00     440.00     472.00       0.00
   43      30.00      16.00       0.00     138.00     195.00       0.00
   44      19.00      13.00       0.00     177.00     181.00       0.00
   45      32.00      38.00       0.00      26.00      81.00       0.00
   46       4.00       4.00       0.00     224.00     263.00       0.00
   47      18.00      29.00       0.00     234.00     283.00       0.00
   48      14.00      13.00       0.00     180.00     210.00       0.00
   49      15.00      47.00       0.00     289.00     336.00       0.00
   50      23.00      47.00       0.00     285.00     316.00       0.00
   51      11.00      29.00       0.00     255.00     291.00       0.00
   52      43.00      29.00       0.00     462.00     538.00       0.00
   53      26.00       3.00       0.00     119.00     161.00       0.00
   54      14.00      39.00       0.00     311.00     351.00       0.00
   55      19.00       9.00       0.00     181.00     213.00       0.00
   56      47.00      39.00       0.00       0.00      52.00       0.00
   57      37.00      22.00       0.00      72.00     110.00       0.00
   58      11.00       5.00       0.00     196.00     222.00       0.00
   59      26.00      27.00       0.00      41.00      94.00       0.00
   60      14.00       2.00       0.00     192.00     208.00       0.00
   61       4.00      20.00       0.00     580.00     603.00       0.00
  999       0.00       0.00       0.00       0.00       0.00       0.00