benchmarks/VRPTW/TSPTW/solution/n60w40.001.txt.solution
1 4 34 33 41 8 56 30 18 19 12 45 7 59 22 29 9 57 25 20 16 40 13 5 43 26 3 15 53 44 17 48 55 28 60 58 37 46 32 36 47 21 51 10 50 49 54 6 27 35 38 39 11 24 31 42 52 23 14 61 2 
591
